c Reduced graph for GEOM120_1 generated by Cyril Grelier
p edge 117 754
e 1 2
e 1 3
e 1 4
e 1 7
e 1 9
e 1 10
e 1 11
e 1 16
e 1 18
e 1 22
e 1 28
e 1 29
e 1 36
e 1 37
e 1 42
e 1 56
e 1 57
e 1 61
e 1 63
e 1 68
e 1 71
e 2 3
e 2 4
e 2 7
e 2 9
e 2 10
e 2 11
e 2 16
e 2 18
e 2 22
e 2 28
e 2 29
e 2 36
e 2 37
e 2 38
e 2 56
e 2 57
e 2 63
e 2 68
e 2 71
e 3 4
e 3 5
e 3 7
e 3 9
e 3 10
e 3 11
e 3 16
e 3 18
e 3 19
e 3 28
e 3 31
e 3 37
e 3 45
e 3 55
e 3 60
e 3 80
e 3 83
e 4 5
e 4 7
e 4 9
e 4 10
e 4 11
e 4 16
e 4 18
e 4 22
e 4 28
e 4 29
e 4 31
e 4 37
e 4 38
e 4 67
e 4 78
e 4 86
e 5 7
e 5 8
e 5 13
e 5 18
e 5 19
e 5 21
e 5 25
e 5 31
e 5 37
e 5 45
e 5 50
e 5 55
e 5 60
e 5 80
e 5 83
e 5 90
e 6 8
e 6 12
e 6 13
e 6 14
e 6 15
e 6 19
e 6 20
e 6 25
e 6 26
e 6 27
e 6 32
e 6 41
e 6 45
e 6 46
e 6 50
e 6 53
e 6 60
e 6 66
e 7 9
e 7 11
e 7 16
e 7 18
e 7 28
e 7 31
e 7 38
e 7 55
e 7 67
e 7 78
e 7 83
e 7 102
e 7 114
e 8 12
e 8 13
e 8 14
e 8 15
e 8 19
e 8 20
e 8 21
e 8 25
e 8 31
e 8 32
e 8 41
e 8 45
e 8 50
e 8 55
e 8 60
e 8 66
e 9 10
e 9 11
e 9 16
e 9 18
e 9 22
e 9 28
e 9 29
e 9 37
e 9 38
e 9 63
e 9 67
e 9 78
e 9 86
e 10 11
e 10 16
e 10 18
e 10 22
e 10 28
e 10 29
e 10 38
e 10 56
e 10 63
e 10 68
e 10 71
e 10 78
e 10 86
e 11 16
e 11 18
e 11 22
e 11 28
e 11 29
e 11 37
e 11 38
e 11 67
e 11 78
e 11 86
e 12 13
e 12 14
e 12 15
e 12 20
e 12 21
e 12 24
e 12 25
e 12 26
e 12 27
e 12 32
e 12 35
e 12 41
e 12 45
e 12 46
e 12 66
e 13 14
e 13 15
e 13 19
e 13 21
e 13 25
e 13 31
e 13 32
e 13 45
e 13 50
e 13 55
e 13 60
e 13 83
e 13 90
e 14 15
e 14 20
e 14 21
e 14 24
e 14 25
e 14 26
e 14 27
e 14 32
e 14 35
e 14 41
e 14 46
e 14 66
e 14 110
e 15 19
e 15 20
e 15 21
e 15 25
e 15 32
e 15 41
e 15 45
e 15 46
e 15 50
e 15 60
e 15 66
e 15 110
e 16 18
e 16 28
e 16 29
e 16 38
e 16 67
e 16 78
e 16 86
e 16 102
e 17 30
e 17 33
e 17 34
e 17 43
e 17 44
e 17 49
e 17 51
e 17 52
e 17 53
e 17 54
e 17 58
e 17 62
e 17 70
e 17 72
e 17 74
e 17 76
e 18 22
e 18 28
e 18 31
e 18 37
e 18 38
e 18 67
e 19 21
e 19 25
e 19 31
e 19 32
e 19 45
e 19 50
e 19 55
e 19 60
e 19 83
e 19 90
e 20 21
e 20 24
e 20 26
e 20 32
e 20 35
e 20 39
e 20 46
e 20 47
e 20 69
e 20 79
e 20 110
e 21 31
e 21 32
e 21 39
e 21 55
e 21 83
e 21 90
e 21 110
e 21 117
e 22 29
e 22 36
e 22 42
e 22 56
e 22 57
e 22 63
e 22 68
e 22 71
e 22 77
e 23 54
e 23 64
e 23 65
e 23 70
e 23 74
e 23 75
e 23 76
e 23 81
e 23 84
e 23 85
e 23 87
e 23 88
e 23 89
e 23 93
e 23 95
e 23 101
e 24 26
e 24 27
e 24 35
e 24 41
e 24 46
e 24 47
e 24 59
e 24 82
e 24 91
e 24 92
e 24 96
e 24 106
e 24 115
e 25 32
e 25 41
e 25 45
e 25 50
e 25 53
e 25 60
e 25 66
e 25 80
e 26 27
e 26 35
e 26 41
e 26 46
e 26 47
e 26 59
e 26 82
e 26 92
e 26 96
e 26 106
e 26 115
e 27 41
e 27 46
e 27 47
e 27 59
e 27 66
e 27 72
e 27 82
e 27 91
e 27 92
e 27 96
e 27 112
e 28 29
e 28 38
e 28 67
e 28 78
e 28 86
e 29 38
e 29 56
e 29 63
e 29 71
e 29 78
e 29 86
e 30 33
e 30 34
e 30 40
e 30 43
e 30 44
e 30 48
e 30 49
e 30 51
e 30 52
e 30 58
e 30 62
e 30 104
e 30 113
e 30 116
e 31 45
e 31 55
e 31 83
e 31 90
e 31 102
e 31 114
e 32 35
e 32 39
e 32 55
e 32 110
e 32 117
e 33 34
e 33 40
e 33 43
e 33 44
e 33 48
e 33 49
e 33 51
e 33 52
e 33 58
e 33 59
e 33 62
e 33 72
e 33 82
e 34 40
e 34 43
e 34 44
e 34 48
e 34 49
e 34 51
e 34 52
e 34 58
e 34 62
e 34 104
e 34 113
e 34 116
e 35 39
e 35 47
e 35 69
e 35 79
e 35 92
e 35 97
e 35 100
e 35 106
e 35 110
e 36 37
e 36 42
e 36 56
e 36 57
e 36 61
e 36 63
e 36 68
e 36 71
e 36 73
e 36 77
e 36 80
e 36 94
e 37 42
e 37 45
e 37 50
e 37 60
e 37 61
e 37 80
e 38 67
e 38 78
e 38 86
e 38 102
e 39 69
e 39 79
e 39 97
e 39 98
e 39 100
e 39 107
e 39 108
e 39 109
e 39 110
e 39 117
e 40 43
e 40 44
e 40 48
e 40 49
e 40 51
e 40 52
e 40 58
e 40 62
e 40 104
e 40 113
e 40 116
e 41 46
e 41 53
e 41 59
e 41 66
e 41 72
e 42 56
e 42 57
e 42 61
e 42 63
e 42 68
e 42 71
e 42 73
e 42 77
e 42 80
e 42 94
e 43 44
e 43 48
e 43 49
e 43 51
e 43 52
e 43 58
e 43 59
e 43 62
e 43 72
e 44 48
e 44 49
e 44 51
e 44 52
e 44 58
e 44 62
e 44 70
e 44 76
e 45 50
e 45 60
e 45 80
e 46 47
e 46 59
e 46 66
e 46 72
e 46 82
e 47 69
e 47 79
e 47 82
e 47 91
e 47 92
e 47 96
e 47 106
e 47 115
e 48 49
e 48 51
e 48 52
e 48 62
e 48 104
e 48 112
e 48 113
e 48 116
e 49 51
e 49 52
e 49 58
e 49 62
e 49 70
e 49 76
e 50 53
e 50 60
e 50 61
e 50 66
e 50 80
e 51 52
e 51 58
e 51 62
e 51 76
e 51 104
e 52 58
e 52 62
e 52 70
e 52 76
e 53 54
e 53 60
e 53 65
e 53 66
e 53 72
e 53 74
e 53 85
e 53 93
e 53 101
e 54 64
e 54 65
e 54 70
e 54 72
e 54 74
e 54 76
e 54 85
e 54 88
e 54 93
e 54 101
e 55 83
e 55 90
e 55 102
e 55 114
e 56 57
e 56 61
e 56 63
e 56 68
e 56 71
e 56 77
e 57 61
e 57 63
e 57 68
e 57 71
e 57 73
e 57 77
e 57 94
e 58 59
e 58 62
e 58 72
e 59 66
e 59 72
e 59 82
e 59 91
e 59 112
e 60 80
e 61 68
e 61 73
e 61 77
e 61 80
e 61 93
e 61 101
e 62 104
e 63 68
e 63 71
e 63 77
e 64 65
e 64 70
e 64 74
e 64 75
e 64 76
e 64 81
e 64 84
e 64 85
e 64 88
e 64 89
e 64 95
e 65 70
e 65 73
e 65 74
e 65 84
e 65 85
e 65 88
e 65 93
e 65 95
e 65 101
e 66 72
e 67 78
e 67 86
e 67 102
e 67 114
e 68 71
e 68 77
e 69 79
e 69 97
e 69 98
e 69 100
e 69 106
e 69 107
e 69 108
e 69 109
e 70 74
e 70 76
e 70 88
e 70 95
e 71 77
e 72 74
e 73 77
e 73 85
e 73 93
e 73 94
e 73 99
e 73 101
e 73 103
e 74 76
e 74 85
e 74 93
e 74 101
e 75 81
e 75 84
e 75 87
e 75 88
e 75 89
e 75 95
e 75 99
e 75 103
e 75 105
e 75 111
e 76 88
e 76 95
e 77 94
e 77 99
e 78 86
e 79 97
e 79 98
e 79 100
e 79 107
e 79 108
e 79 109
e 80 93
e 81 84
e 81 87
e 81 88
e 81 89
e 81 95
e 81 103
e 81 105
e 81 111
e 82 91
e 82 92
e 82 96
e 82 112
e 83 90
e 83 102
e 83 114
e 84 87
e 84 88
e 84 89
e 84 95
e 84 105
e 84 111
e 85 93
e 85 94
e 85 99
e 85 101
e 87 89
e 87 94
e 87 99
e 87 103
e 87 105
e 87 111
e 88 95
e 89 95
e 89 103
e 89 105
e 89 111
e 90 102
e 90 114
e 90 117
e 91 92
e 91 96
e 91 106
e 91 112
e 91 115
e 92 96
e 92 106
e 92 115
e 93 101
e 94 99
e 94 103
e 94 105
e 96 106
e 96 112
e 96 115
e 97 98
e 97 100
e 97 107
e 97 108
e 97 109
e 98 100
e 98 107
e 98 108
e 98 109
e 98 117
e 99 103
e 99 105
e 99 111
e 100 107
e 100 108
e 100 109
e 102 114
e 103 105
e 103 111
e 104 112
e 104 113
e 104 116
e 105 111
e 106 115
e 107 108
e 107 109
e 108 109
e 110 117
e 112 113
e 113 116
